l=2888;
a=2;
setup_costs=[|2,2,
|3,3,
|0,0|];
setup_times=[|1,0,
|3,0,
|0,0|];
m=2;
min_cap=[0,0];
max_cap=[20,20];

initState=[1,1];
s=3;
m_a_s = [|439,484,2267,
|2,394,2217|];
m_a_e = [|481,1846,2760,
|371,2199,2877|];
n=250;
eligible_machine = [{1},
{2,1},
{1,2},
{2},
{2,1},
{1,2},
{1},
{2},
{2},
{2,1},
{2,1},
{2,1},
{1,2},
{1,2},
{1,2},
{2},
{2},
{2,1},
{2},
{1,2},
{2,1},
{2,1},
{1},
{2,1},
{2,1},
{1},
{1},
{1},
{2},
{2,1},
{2,1},
{1},
{2},
{1,2},
{1},
{1},
{1,2},
{1,2},
{2},
{2},
{1,2},
{2,1},
{1},
{1},
{2,1},
{1},
{2,1},
{2,1},
{2,1},
{1},
{2},
{1},
{1,2},
{1,2},
{2,1},
{2},
{2},
{2},
{1,2},
{2,1},
{2},
{2,1},
{2,1},
{1,2},
{2},
{2},
{2,1},
{2,1},
{2,1},
{2,1},
{1},
{1,2},
{1,2},
{1,2},
{2},
{2,1},
{1,2},
{2},
{2,1},
{1},
{1,2},
{1,2},
{2},
{1,2},
{2,1},
{2},
{2,1},
{2,1},
{2,1},
{1},
{1,2},
{1,2},
{1},
{1},
{1,2},
{1,2},
{2,1},
{2,1},
{2,1},
{2},
{1},
{2},
{2,1},
{2},
{1,2},
{2},
{2,1},
{1},
{1,2},
{1},
{2,1},
{2,1},
{2,1},
{2},
{1},
{2},
{1,2},
{1,2},
{2,1},
{2},
{2},
{1,2},
{1,2},
{1},
{2},
{2,1},
{2},
{2,1},
{1,2},
{1,2},
{1},
{1,2},
{1},
{2,1},
{1,2},
{2,1},
{2},
{1,2},
{2,1},
{1,2},
{1},
{2},
{2},
{1},
{1,2},
{2},
{2,1},
{2,1},
{1},
{2},
{1},
{2,1},
{2,1},
{2},
{1},
{1},
{1},
{2},
{1},
{1,2},
{1,2},
{2},
{1},
{1},
{2,1},
{1},
{1,2},
{2},
{2},
{1},
{1},
{2,1},
{1,2},
{2},
{1},
{2,1},
{2},
{1,2},
{1,2},
{2,1},
{1,2},
{2,1},
{1},
{2,1},
{2,1},
{2,1},
{2,1},
{2},
{1},
{2,1},
{1,2},
{2,1},
{1},
{1,2},
{2,1},
{1},
{1},
{1},
{1,2},
{1},
{1,2},
{1,2},
{1,2},
{2},
{1,2},
{2,1},
{2,1},
{1},
{1},
{1},
{2,1},
{1,2},
{2,1},
{2},
{1},
{1},
{1},
{2},
{2},
{2},
{2},
{2,1},
{2},
{1,2},
{1},
{1},
{2,1},
{2},
{1},
{1,2},
{2,1},
{2},
{1,2},
{1,2},
{2},
{2},
{1,2},
{2},
{2,1},
{2,1},
{2},
{2,1},
{2,1},
{2},
{2},
{1},
{1},
{1},
{1},
{1}];
earliest_start=[110,80,84,115,121,72,47,90,50,63,25,11,60,0,74,36,123,94,30,113,48,97,96,64,9,63,56,66,16,110,54,130,98,116,116,23,66,132,30,110,85,31,129,41,111,14,65,90,13,69,89,115,3,126,69,13,117,19,105,58,15,113,74,73,8,27,46,77,17,50,102,123,64,52,27,17,101,55,85,128,130,99,52,80,21,72,127,105,47,103,39,46,27,104,95,104,90,55,32,84,100,121,72,96,99,98,51,84,98,52,44,61,67,110,60,48,61,126,52,69,33,74,29,46,10,56,96,92,90,56,60,46,22,1,27,9,27,89,113,55,20,42,6,128,59,110,112,49,44,46,43,96,3,96,50,26,91,25,85,43,2,91,126,42,125,131,39,66,83,51,21,105,13,130,48,123,67,34,120,33,76,47,48,44,13,96,42,59,83,1,50,1,3,69,53,62,48,97,2,61,71,45,99,125,24,70,82,6,48,59,91,56,38,52,99,87,42,82,29,28,88,113,116,81,0,20,101,77,77,118,75,103,31,59,94,31,81,55,20,75,13,35,10,23,43,127,95,84,102,98];
latest_end=[150,103,90,135,137,84,87,91,62,65,52,43,77,19,84,68,151,118,34,117,65,121,104,81,42,73,82,100,29,114,103,134,106,126,128,38,93,144,59,132,91,41,132,54,129,40,71,92,38,98,95,126,15,135,77,18,125,29,109,71,50,115,99,77,11,54,74,81,23,75,115,127,85,64,32,25,111,99,97,130,135,114,64,97,22,76,140,113,71,119,59,50,52,127,99,112,92,60,35,87,103,161,82,108,128,101,57,122,110,81,87,75,81,112,64,51,80,134,76,87,69,86,32,62,15,60,106,128,96,60,86,54,51,13,51,14,36,98,116,94,28,84,9,142,69,116,146,78,75,61,71,111,5,104,59,60,108,39,108,50,30,103,153,85,127,155,61,74,88,83,44,111,21,153,81,145,74,78,125,35,104,61,50,57,21,133,47,73,113,13,56,12,46,84,55,97,56,101,5,80,84,66,130,153,41,89,92,12,80,64,109,89,57,75,117,93,46,92,35,39,105,120,124,130,8,47,110,99,98,150,105,105,57,64,106,57,114,60,43,78,16,64,38,49,51,154,101,97,126,114];
min_time=[10,5,5,8,6,3,10,1,3,1,6,9,5,6,3,10,9,5,1,4,4,6,3,9,7,4,6,10,4,3,10,1,3,3,3,7,7,9,10,9,2,8,2,3,6,7,2,1,6,8,2,7,3,2,4,4,2,7,1,3,8,1,8,1,2,6,6,2,3,7,3,1,6,3,2,7,5,10,3,1,2,6,4,6,1,3,9,2,10,9,5,1,8,7,2,2,1,2,2,1,2,10,8,9,6,1,2,10,10,8,10,3,4,1,1,3,7,2,10,9,8,5,3,5,3,2,3,9,2,1,7,4,8,3,10,2,8,6,1,10,2,9,2,3,10,2,7,8,7,10,6,9,2,4,3,7,8,4,7,4,9,3,8,10,1,6,6,2,2,9,5,2,2,10,7,9,3,10,5,1,6,6,2,3,5,9,2,5,10,3,5,5,9,7,2,10,2,2,2,4,7,6,7,9,5,5,7,3,8,4,5,8,9,7,9,3,1,6,6,3,5,2,2,10,5,10,3,6,8,8,8,2,9,2,4,10,10,4,8,1,2,10,7,7,8,7,6,3,8,9];
max_time=[10,10,10,10,10,10,10,10,10,10,10,10,10,10,10,10,10,10,10,10,10,10,10,10,10,10,10,10,10,10,10,10,10,10,10,10,10,10,10,10,10,10,10,10,10,10,10,10,10,10,10,10,10,10,10,10,10,10,10,10,10,10,10,10,10,10,10,10,10,10,10,10,10,10,10,10,10,10,10,10,10,10,10,10,10,10,10,10,10,10,10,10,10,10,10,10,10,10,10,10,10,10,10,10,10,10,10,10,10,10,10,10,10,10,10,10,10,10,10,10,10,10,10,10,10,10,10,10,10,10,10,10,10,10,10,10,10,10,10,10,10,10,10,10,10,10,10,10,10,10,10,10,10,10,10,10,10,10,10,10,10,10,10,10,10,10,10,10,10,10,10,10,10,10,10,10,10,10,10,10,10,10,10,10,10,10,10,10,10,10,10,10,10,10,10,10,10,10,10,10,10,10,10,10,10,10,10,10,10,10,10,10,10,10,10,10,10,10,10,10,10,10,10,10,10,10,10,10,10,10,10,10,10,10,10,10,10,10,10,10,10,10,10,10,10,10,10,10,10,10];
size=[1,4,19,16,3,6,10,16,18,6,16,5,16,9,4,4,9,13,4,14,19,8,14,1,17,6,18,9,14,14,16,3,5,13,19,18,13,2,3,16,6,6,17,16,7,6,6,12,10,17,8,14,19,17,3,13,19,15,8,3,10,17,3,1,2,17,16,9,2,13,2,12,19,4,9,5,4,12,6,19,11,11,13,13,14,17,20,4,9,15,15,13,13,1,1,15,10,12,14,6,14,7,10,18,5,3,16,4,20,4,14,7,17,16,10,17,2,3,12,9,14,7,12,12,13,15,6,5,16,6,9,3,16,19,16,3,15,16,17,9,8,6,11,17,14,18,17,8,1,5,8,2,14,12,3,12,5,17,17,6,10,4,19,7,1,1,6,18,3,9,17,16,1,15,11,10,19,4,4,19,18,8,5,8,13,8,16,17,11,20,3,6,11,12,8,9,9,14,6,11,11,12,3,6,9,8,6,6,7,16,19,6,2,10,20,20,7,9,17,15,6,16,5,20,11,5,8,9,15,17,11,4,15,13,5,7,16,9,17,9,15,12,7,8,18,10,15,19,11,6];
attribute=[2,2,1,1,2,1,2,1,2,1,2,1,2,1,1,1,1,1,2,1,2,1,2,2,1,1,2,1,2,2,1,1,1,2,1,1,1,2,2,1,2,2,2,1,1,2,2,1,2,1,2,1,1,1,1,2,1,1,1,2,2,1,1,1,1,1,2,2,2,2,2,2,2,2,2,2,2,1,1,1,1,1,2,2,1,2,1,1,2,2,2,2,1,2,1,2,2,1,2,2,1,1,2,2,2,2,2,2,1,2,2,2,2,2,2,2,2,2,1,2,2,2,1,2,1,2,1,1,2,2,2,1,1,1,1,2,2,2,2,2,1,1,1,1,2,1,2,2,2,2,2,2,1,2,1,2,2,2,2,1,1,2,2,2,1,1,1,2,1,1,2,1,1,2,1,1,1,1,2,2,1,1,1,1,2,2,1,2,1,1,2,1,1,2,2,2,2,1,2,1,1,2,1,2,1,2,2,1,1,1,2,1,2,1,2,1,1,2,2,2,1,1,1,2,1,1,2,1,1,2,1,2,2,2,1,1,2,2,1,2,1,1,1,2,1,1,1,1,2,1];

upper_bound_integer_objective=7500;
mult_factor_total_runtime=2;
mult_factor_finished_toolate=12;
mult_factor_total_setuptimes=0;
mult_factor_total_setupcosts=2;
running_time_bound=1317;
min_duration=1;
max_duration=10;
max_setup_time=3;
max_setup_cost=3;
